p cnf 104 360
1 -2 0
-1 -2 0
3 -4 -5 0
-3 4 -5 0
3 4 5 0
-3 -4 5 0
6 -2 0
6 -5 0
2 5 -6 0
7 -8 -9 0
-7 8 -9 0
7 8 9 0
-7 -8 9 0
-3 -1 -10 0
3 1 -10 0
-3 1 10 0
3 -1 10 0
12 10 0
12 -11 0
-10 11 -12 0
14 -12 0
14 13 0
12 -13 -14 0
-15 5 0
-15 -14 0
-5 14 15 0
-16 9 0
-16 15 0
-9 -15 16 0
-17 6 0
-17 16 0
-6 -16 17 0
18 -9 0
18 9 0
20 19 0
20 13 0
-19 -13 -20 0
18 20 -21 0
-18 -20 -21 0
18 -20 21 0
-18 20 21 0
-10 8 -22 0
10 -8 -22 0
-10 -8 22 0
10 8 22 0
-23 -4 0
-23 -22 0
4 22 23 0
-24 25 -26 0
24 -25 -26 0
-24 -25 26 0
24 25 26 0
13 -26 -27 0
-13 26 -27 0
13 26 27 0
-13 -26 27 0
28 23 0
28 27 0
-23 -27 -28 0
30 28 0
30 -29 0
-28 29 -30 0
32 -1 0
32 -31 0
1 31 -32 0
-33 -32 0
-33 -15 0
32 15 33 0
-34 4 0
-34 -32 0
-4 32 34 0
33 -34 -35 0
-33 34 -35 0
33 34 35 0
-33 -34 35 0
-30 35 -36 0
30 -35 -36 0
-30 -35 36 0
30 35 36 0
-38 -37 0
-38 -14 0
37 14 38 0
-31 -14 -39 0
31 14 -39 0
-31 14 39 0
31 -14 39 0
40 -7 0
40 -13 0
7 13 -40 0
42 -40 0
42 41 0
40 -41 -42 0
4 42 -43 0
-4 -42 -43 0
4 -42 43 0
-4 42 43 0
-44 43 0
-44 33 0
-43 -33 44 0
45 39 0
45 44 0
-39 -44 -45 0
46 14 0
46 -45 0
-14 45 -46 0
-38 -46 -47 0
38 46 -47 0
-38 46 47 0
38 -46 47 0
-48 -36 0
-48 -47 0
36 47 48 0
21 48 -49 0
-21 -48 -49 0
21 -48 49 0
-21 48 49 0
26 42 -50 0
-26 -42 -50 0
26 -42 50 0
-26 42 50 0
-51 24 0
-51 50 0
-24 -50 51 0
27 -5 -52 0
-27 5 -52 0
27 5 52 0
-27 -5 52 0
-51 -52 -53 0
51 52 -53 0
-51 52 53 0
51 -52 53 0
-54 -27 0
-54 -31 0
27 31 54 0
-55 -53 0
-55 -54 0
53 54 55 0
-56 14 0
-56 29 0
-14 -29 56 0
-57 55 0
-57 -56 0
-55 56 57 0
-58 -19 0
-58 4 0
19 -4 58 0
12 -29 -59 0
-12 29 -59 0
12 29 59 0
-12 -29 59 0
42 59 -60 0
-42 -59 -60 0
42 -59 60 0
-42 59 60 0
61 58 0
61 -60 0
-58 60 -61 0
-62 -40 0
-62 50 0
40 -50 62 0
63 23 0
63 -40 0
-23 40 -63 0
64 19 0
64 43 0
-19 -43 -64 0
65 63 0
65 64 0
-63 -64 -65 0
-66 -62 0
-66 -65 0
62 65 66 0
-61 66 -67 0
61 -66 -67 0
-61 -66 67 0
61 66 67 0
68 -57 0
68 -67 0
57 67 -68 0
-69 -49 0
-69 68 0
49 -68 69 0
70 -17 0
70 -69 0
17 69 -70 0
8 -31 -71 0
-8 31 -71 0
8 31 71 0
-8 -31 71 0
-72 2 0
-72 -1 0
-2 1 72 0
-73 71 0
-73 72 0
-71 -72 73 0
-74 -26 0
-74 3 0
26 -3 74 0
31 -9 -75 0
-31 9 -75 0
31 9 75 0
-31 -9 75 0
76 -60 0
76 75 0
60 -75 -76 0
77 -76 0
77 -27 0
76 27 -77 0
-74 -77 -78 0
74 77 -78 0
-74 77 78 0
74 -77 78 0
-79 -73 0
-79 78 0
73 -78 79 0
80 -42 0
80 -42 0
42 -80 0
81 -10 0
81 80 0
10 -80 -81 0
24 -28 -82 0
-24 28 -82 0
24 28 82 0
-24 -28 82 0
83 81 0
83 82 0
-81 -82 -83 0
79 83 -84 0
-79 -83 -84 0
79 -83 84 0
-79 83 84 0
85 24 0
85 8 0
-24 -8 -85 0
3 85 -86 0
-3 -85 -86 0
3 -85 86 0
-3 85 86 0
-87 -51 0
-87 -42 0
51 42 87 0
88 -87 0
88 26 0
87 -26 -88 0
-89 -86 0
-89 88 0
86 -88 89 0
90 -43 0
90 27 0
43 -27 -90 0
-1 26 -91 0
1 -26 -91 0
-1 -26 91 0
1 26 91 0
90 -91 -92 0
-90 91 -92 0
90 91 92 0
-90 -91 92 0
-51 27 -93 0
51 -27 -93 0
-51 -27 93 0
51 27 93 0
94 93 0
94 31 0
-93 -31 -94 0
-95 -92 0
-95 -94 0
92 94 95 0
96 -8 0
96 -2 0
8 2 -96 0
97 33 0
97 -96 0
-33 96 -97 0
-98 -4 0
-98 15 0
4 -15 98 0
99 98 0
99 -9 0
-98 9 -99 0
97 99 -100 0
-97 -99 -100 0
97 -99 100 0
-97 99 100 0
-95 -100 -101 0
95 100 -101 0
-95 100 101 0
95 -100 101 0
102 89 0
102 101 0
-89 -101 -102 0
103 84 0
103 102 0
-84 -102 -103 0
70 103 -104 0
-70 -103 -104 0
70 -103 104 0
-70 103 104 0
-98 38 -96 0
34 101 -52 -1 14 0
6 -50 0
98 95 0
26 88 43 31 0
-36 -51 0
-100 -27 43 96 -28 0
-9 78 -54 -63 0
102 -17 40 0
-34 -73 25 0
102 9 33 -59 0
-96 -26 0
70 85 -90 -21 0
-49 48 -29 -8 -58 -96 0
78 -60 -72 71 -100 -36 0
-94 -64 0
-89 104 0
103 -82 -27 0
34 104 -50 -72 0
-38 58 16 -13 85 0
-21 -76 95 0
34 -67 10 0
-28 -94 -99 59 -58 0
-48 37 0
7 -46 -32 60 -74 0
52 -84 34 39 -92 -3 0
-14 -53 -18 -25 70 -33 0
-63 103 9 0
30 -39 51 -7 46 0
77 102 2 -22 47 0
4 41 -104 37 0
48 -33 -14 0
-31 83 -45 0
44 12 79 0
-70 -80 -83 -21 0
20 -58 94 32 90 0
-89 -40 0
-7 74 0
-44 -88 -17 -45 73 0
55 -3 46 61 -37 -70 0
59 -39 -72 -79 13 0
-58 -41 104 95 -23 0
94 -30 -64 41 0
-91 77 11 -74 -22 0
-26 -81 -49 0
-36 -23 0
-74 36 0
54 -34 -6 -30 -25 101 0
92 70 0
-33 -47 62 45 -89 0
-64 71 -20 -4 52 -2 0
8 -88 19 -15 -59 0
10 -62 86 96 0
20 -22 -93 38 0
-57 11 0
-81 -64 -99 97 18 0
-53 35 0
-78 -1 92 -49 0
37 4 33 -97 -6 0
44 -25 49 -72 0
104 0
